    &CONTROL
calculation = 'scf'
prefix='SnzW4_SOC'
pseudo_dir = '/home/student/Private/Louis/Pseudo'
outdir='./'
tstress=.true.
tprnfor = .true.
forc_conv_thr=1.0d-3
nstep=400
wf_collect=.true.
/
    &SYSTEM
ibrav=0
celldm(1)=1.889726
nat=
ntyp=4
ecutwfc=50
ecutrho=400
occupations='smearing'
smearing='mp'
degauss=0.01
noncolin=.true.
lspinorb=.true.
starting_magnetization(1)=0.0001
starting_magnetization(2)=0.1
starting_magnetization(3)=0.1
angle1(1)=1
angle2(1)=1
angle1(2)=1
angle2(2)=1
angle1(3)=180
angle2(3)=1
/
    &ELECTRONS
mixing_beta=0.3
conv_thr =  1.0d-7
electron_maxstep=750
/
    &IONS
trust_radius_max=0.2
/
    &CELL
cell_dynamics='bfgs'
/
ATOMIC_SPECIES

CELL_PARAMETERS (alat)

ATOMIC_POSITIONS (crystal)

K_POINTS {automatic}
 1 1 12  1 1 1