!----------THIS FILE HAS BEEN AUTOMATICALLY CREATED FROM STRUCTURE INFO ---------!
    &CONTROL
calculation = 'scf'
prefix='SnCl_SOC'
pseudo_dir = '/home/student/Private/Louis/Pseudo'
outdir='./'
tstress=.true.
tprnfor = .true.
forc_conv_thr=1.0d-5
wf_collect=.true.
nstep=200
/
    &SYSTEM
ibrav=0
celldm(1)=1.889726
nat=4
ntyp=3
ecutwfc=50
ecutrho=400
noncolin=.true.
lspinorb=.true.
starting_magnetization(1)=0.0001
starting_magnetization(2)=0.001
starting_magnetization(3)=-0.001
occupations='smearing'
smearing='mp'
degauss=0.01
/
    &ELECTRONS
mixing_beta=0.3
conv_thr =  1.0d-7
electron_maxstep=200
/
    &IONS
trust_radius_max=0.2
/
    &CELL
cell_dynamics='bfgs'
/

ATOMIC_SPECIES
Sn  118.709999  PROVIDE .UPF FILE HERE
Cl  35.4529991  PROVIDE .UPF FILE HERE

CELL_PARAMETERS (alat)
4.93289478  0  0
-2.45568466  4.27726131  0
0  0  27.715592

ATOMIC_POSITIONS (crystal)
Sn	0.0124306511  0.0283348802  0.496563226
Sn	0.677359402  0.362876177  0.521035552
Cl	0.0127567584  0.0264814217  0.41061911
Cl	0.673960328  0.361894578  0.606985271

K_POINTS {automatic}
 10 10 1 1 1 1
