    &CONTROL
calculation = 'scf'
prefix='SnCl_SOC'
pseudo_dir = '/home/student/Private/Louis/Pseudo'
outdir='./'
tstress=.true.
tprnfor = .true.
forc_conv_thr=1.0d-5
wf_collect=.true.
nstep=200
/
    &SYSTEM
ibrav=0
celldm(1)=1.889726
nat=4
ntyp=3
ecutwfc=50
ecutrho=400
noncolin=.true.
lspinorb=.true.
starting_magnetization(1)=0.0001
starting_magnetization(2)=0.001
starting_magnetization(3)=-0.001
occupations='smearing'
smearing='mp'
degauss=0.01
/
    &ELECTRONS
mixing_beta=0.3
conv_thr =  1.0d-7
electron_maxstep=200
/
    &IONS
trust_radius_max=0.2
/
    &CELL
cell_dynamics='bfgs'
/

ATOMIC_SPECIES
  Sn  118.7100  Sn-4v-SOC.UPF
  Cl1   35.45    Cl-SOC.UPF
  Cl2   35.45    Cl-SOC.UPF

CELL_PARAMETERS (alat)
   4.932894781     0.000000121    0.000000001
  -2.455684664     4.277261314    -0.00000001
  -0.000003377     -0.00000026    27.715591959

ATOMIC_POSITIONS (crystal)
Sn       0.012430651     0.028334880     0.496563234
Sn       0.677359392     0.362876186     0.521035578
Cl1       0.012756758     0.026481422     0.410619112
Cl2       0.673960357     0.361894573     0.606985286

K_POINTS {automatic}
 10 10 1 1 1 1