
    &CONTROL
calculation = 'scf'
prefix='SnzW4_SOC'
pseudo_dir = '/home/student/Private/Louis/Pseudo'
outdir='./'
tstress=.true.
tprnfor = .true.
forc_conv_thr=1.0d-3
nstep=400
wf_collect=.true.
/
    &SYSTEM
ibrav=0
celldm(1)=1.889726
nat=21
ntyp=4
ecutwfc=50
ecutrho=400
occupations='smearing'
smearing='mp'
degauss=0.01
noncolin=.true.
lspinorb=.true.
starting_magnetization(1)=0.0001
starting_magnetization(2)=0.1
starting_magnetization(3)=0.1
angle1(1)=1
angle2(1)=1
angle1(2)=1
angle2(2)=1
angle1(3)=180
angle2(3)=1
/
    &ELECTRONS
mixing_beta=0.3
conv_thr =  1.0d-7
electron_maxstep=750
/
    &IONS
trust_radius_max=0.2
/
    &CELL
cell_dynamics='bfgs'
/
ATOMIC_SPECIES
Sn  118.709999  PROVIDE .UPF FILE HERE
H  1.0079  PROVIDE .UPF FILE HERE
C  12.0107002  PROVIDE .UPF FILE HERE

CELL_PARAMETERS (alat)
10.0901  0  0
0  26.6426  0
0  0  9.36242

ATOMIC_POSITIONS (crystal)
Sn	0.480151961  0.239837405  0.160446484
Sn	0.627604648  0.358502718  0.910660581
Sn	0.558154313  0.451072418  0.136917049
Sn	0.578493777  0.284373016  0.91009827
Sn	0.490618972  0.538317251  0.660502098
Sn	0.503701274  0.691442601  0.41135305
Sn	0.60444172  0.735176336  0.66184666
Sn	0.57724727  0.588484713  0.410929589
Sn	0.479595316  0.23971368  0.660025201
Sn	0.498891169  0.386751099  0.410507349
Sn	0.601119311  0.446880856  0.660681389
Sn	0.578738512  0.284544081  0.410457997
Sn	0.503845885  0.568335224  0.18093311
Sn	0.503595655  0.691079967  0.911517815
Sn	0.604952411  0.735143196  0.161146109
Sn	0.576827357  0.588191399  0.910716609
H	0.512931732  0.174827217  0.659103117
H	0.512733726  0.174901842  0.16038612
H	0.575422004  0.800347009  0.663588964
H	0.575890673  0.800316134  0.160856311
C	0.637488785  0.473170484  -0.154752601

K_POINTS {automatic}
 1 1 12  1 1 1
