
    &CONTROL
calculation = 'scf'
prefix='SnzW4_SOC'
pseudo_dir = '/home/student/Private/Louis/Pseudo'
outdir='./'
tstress=.true.
tprnfor = .true.
forc_conv_thr=1.0d-3
nstep=400
wf_collect=.true.
/
    &SYSTEM
ibrav=0
celldm(1)=1.889726
nat=21
ntyp=4
ecutwfc=50
ecutrho=400
occupations='smearing'
smearing='mp'
degauss=0.01
noncolin=.true.
lspinorb=.true.
starting_magnetization(1)=0.0001
starting_magnetization(2)=0.1
starting_magnetization(3)=0.1
angle1(1)=1
angle2(1)=1
angle1(2)=1
angle2(2)=1
angle1(3)=180
angle2(3)=1
/
    &ELECTRONS
mixing_beta=0.3
conv_thr =  1.0d-7
electron_maxstep=750
/
    &IONS
trust_radius_max=0.2
/
    &CELL
cell_dynamics='bfgs'
/
ATOMIC_SPECIES
Sn  118.709999  PROVIDE .UPF FILE HERE
H  1.0079  PROVIDE .UPF FILE HERE
C  12.0107002  PROVIDE .UPF FILE HERE

CELL_PARAMETERS (alat)
10.0901  0  0
0  26.6426  0
0  0  9.36242

ATOMIC_POSITIONS (crystal)
Sn	0.480151951  0.239837408  0.16044648
Sn	0.627604663  0.358502716  0.910660565
Sn	0.558154285  0.451072425  0.136917055
Sn	0.578493774  0.284373015  0.910098255
Sn	0.490618974  0.538317263  0.660502076
Sn	0.50370127  0.691442609  0.411353052
Sn	0.604441702  0.735176325  0.661846638
Sn	0.577247262  0.588484704  0.41092959
Sn	0.479595304  0.239713684  0.660025179
Sn	0.498891175  0.386751086  0.410507351
Sn	0.601119339  0.446880847  0.660681367
Sn	0.578738511  0.28454408  0.410457999
Sn	0.50384587  0.568335235  0.180933103
Sn	0.50359565  0.691079974  0.911517799
Sn	0.604952395  0.735143185  0.161146104
Sn	0.576827347  0.58819139  0.910716593
H	0.512931705  0.174827218  0.659103096
H	0.512733698  0.174901843  0.160386115
H	0.575421989  0.80034703  0.663588941
H	0.57589066  0.800316155  0.160856307
C	0.637909039  0.472133311  0.00786638504

K_POINTS {automatic}
 1 1 12  1 1 1
